NAME : portgen-28-7
COMMENT : portgen N=28, seed=7
TYPE : TSP
DIMENSION : 28
EDGE_WEIGHT_TYPE : EUC_2D
NODE_COORD_SECTION
1 505570 199321
2 712595 87039
3 983680 849077
4 751405 457873
5 594628 349334
6 891497 362398
7 965118 935274
8 330561 339334
9 141292 557585
10 273960 535135
11 85008 457451
12 983406 428979
13 370805 394832
14 984843 682033
15 729748 728940
16 224744 192477
17 956941 136569
18 483776 208964
19 4230 510573
20 911868 418592
21 942015 450840
22 229890 519640
23 162551 872893
24 7576 995218
25 181648 530835
26 407082 348607
27 918367 92442
28 626364 313092
